<number of tasks>
50

<cycle time>
1000

<order strength>
0.197


<task times>
1 534
2 475
3 576
4 472
5 411
6 493
7 412
8 629
9 363
10 453
11 208
12 466
13 264
14 307
15 525
16 648
17 612
18 278
19 351
20 523
21 497
22 495
23 453
24 674
25 404
26 426
27 462
28 588
29 628
30 492
31 618
32 516
33 401
34 240
35 594
36 593
37 502
38 564
39 542
40 465
41 302
42 369
43 584
44 441
45 405
46 666
47 593
48 374
49 522
50 410

<precedence relations>
1,13
2,13
3,13
4,13
5,24
6,24
8,10
8,12
8,17
9,11
9,14
9,15
9,16
9,18
10,26
11,26
12,26
13,20
13,21
13,22
13,23
14,24
15,24
16,19
17,25
19,26
22,33
24,27
24,28
24,29
24,30
24,31
24,32
26,34
26,35
26,36
26,37
26,38
29,39
29,42
31,40
32,41
37,43
43,44
43,45
43,46
45,47
45,48
46,49
46,50

<end>
